(set-logic QF_LRA)
(declare-fun T1 () Real )
(declare-fun T2 () Real )
(declare-fun T3 () Real )
(declare-fun T4 () Real )
(declare-fun T5 () Real )
(declare-fun T6 () Real )
(declare-fun T7 () Real )
(declare-fun T8 () Real )
(declare-fun Z () Real )
(assert ( and 
(or ( <= ( + T1 87 ) T2 ) ( <= ( + T2 85 ) T1 ) )
(or ( <= ( + T1 162 )  ( + T2 85 ) ) ( <= ( + T2 98 )( + T1 87 ) ) )
(or ( <= ( + T1 197 )  ( + T2 98 ) ) ( <= ( + T2 126 )( + T1 162 ) ) )
(or ( <= ( + T1 285 )  ( + T2 126 ) ) ( <= ( + T2 130 )( + T1 197 ) ) )
(or ( <= ( + T1 293 )  ( + T2 130 ) ) ( <= ( + T2 143 )( + T1 285 ) ) )
(or ( <= ( + T1 299 )  ( + T2 143 ) ) ( <= ( + T2 204 )( + T1 293 ) ) )
(or ( <= ( + T1 303 )  ( + T2 204 ) ) ( <= ( + T2 272 )( + T1 299 ) ) )
(or ( <= ( + T1 401 )  ( + T2 272 ) ) ( <= ( + T2 308 )( + T1 303 ) ) )
(or ( <= ( + T1 440 )  ( + T2 308 ) ) ( <= ( + T2 327 )( + T1 401 ) ) )
(or ( <= ( + T1 448 )  ( + T2 327 ) ) ( <= ( + T2 399 )( + T1 440 ) ) )
(or ( <= ( + T1 87 ) T3 ) ( <= ( + T3 32 ) T1 ) )
(or ( <= ( + T1 162 )  ( + T3 32 ) ) ( <= ( + T3 107 )( + T1 87 ) ) )
(or ( <= ( + T1 197 )  ( + T3 107 ) ) ( <= ( + T3 159 )( + T1 162 ) ) )
(or ( <= ( + T1 285 )  ( + T3 159 ) ) ( <= ( + T3 238 )( + T1 197 ) ) )
(or ( <= ( + T1 293 )  ( + T3 238 ) ) ( <= ( + T3 286 )( + T1 285 ) ) )
(or ( <= ( + T1 299 )  ( + T3 286 ) ) ( <= ( + T3 366 )( + T1 293 ) ) )
(or ( <= ( + T1 303 )  ( + T3 366 ) ) ( <= ( + T3 444 )( + T1 299 ) ) )
(or ( <= ( + T1 401 )  ( + T3 444 ) ) ( <= ( + T3 498 )( + T1 303 ) ) )
(or ( <= ( + T1 440 )  ( + T3 498 ) ) ( <= ( + T3 542 )( + T1 401 ) ) )
(or ( <= ( + T1 448 )  ( + T3 542 ) ) ( <= ( + T3 605 )( + T1 440 ) ) )
(or ( <= ( + T1 87 ) T4 ) ( <= ( + T4 1 ) T1 ) )
(or ( <= ( + T1 162 )  ( + T4 1 ) ) ( <= ( + T4 31 )( + T1 87 ) ) )
(or ( <= ( + T1 197 )  ( + T4 31 ) ) ( <= ( + T4 120 )( + T1 162 ) ) )
(or ( <= ( + T1 285 )  ( + T4 120 ) ) ( <= ( + T4 208 )( + T1 197 ) ) )
(or ( <= ( + T1 293 )  ( + T4 208 ) ) ( <= ( + T4 277 )( + T1 285 ) ) )
(or ( <= ( + T1 299 )  ( + T4 277 ) ) ( <= ( + T4 373 )( + T1 293 ) ) )
(or ( <= ( + T1 303 )  ( + T4 373 ) ) ( <= ( + T4 418 )( + T1 299 ) ) )
(or ( <= ( + T1 401 )  ( + T4 418 ) ) ( <= ( + T4 442 )( + T1 303 ) ) )
(or ( <= ( + T1 440 )  ( + T4 442 ) ) ( <= ( + T4 535 )( + T1 401 ) ) )
(or ( <= ( + T1 448 )  ( + T4 535 ) ) ( <= ( + T4 618 )( + T1 440 ) ) )
(or ( <= ( + T1 87 ) T5 ) ( <= ( + T5 84 ) T1 ) )
(or ( <= ( + T1 162 )  ( + T5 84 ) ) ( <= ( + T5 113 )( + T1 87 ) ) )
(or ( <= ( + T1 197 )  ( + T5 113 ) ) ( <= ( + T5 160 )( + T1 162 ) ) )
(or ( <= ( + T1 285 )  ( + T5 160 ) ) ( <= ( + T5 223 )( + T1 197 ) ) )
(or ( <= ( + T1 293 )  ( + T5 223 ) ) ( <= ( + T5 308 )( + T1 285 ) ) )
(or ( <= ( + T1 299 )  ( + T5 308 ) ) ( <= ( + T5 367 )( + T1 293 ) ) )
(or ( <= ( + T1 303 )  ( + T5 367 ) ) ( <= ( + T5 443 )( + T1 299 ) ) )
(or ( <= ( + T1 401 )  ( + T5 443 ) ) ( <= ( + T5 495 )( + T1 303 ) ) )
(or ( <= ( + T1 440 )  ( + T5 495 ) ) ( <= ( + T5 541 )( + T1 401 ) ) )
(or ( <= ( + T1 448 )  ( + T5 541 ) ) ( <= ( + T5 635 )( + T1 440 ) ) )
(or ( <= ( + T1 87 ) T6 ) ( <= ( + T6 23 ) T1 ) )
(or ( <= ( + T1 162 )  ( + T6 23 ) ) ( <= ( + T6 100 )( + T1 87 ) ) )
(or ( <= ( + T1 197 )  ( + T6 100 ) ) ( <= ( + T6 121 )( + T1 162 ) ) )
(or ( <= ( + T1 285 )  ( + T6 121 ) ) ( <= ( + T6 147 )( + T1 197 ) ) )
(or ( <= ( + T1 293 )  ( + T6 147 ) ) ( <= ( + T6 154 )( + T1 285 ) ) )
(or ( <= ( + T1 299 )  ( + T6 154 ) ) ( <= ( + T6 222 )( + T1 293 ) ) )
(or ( <= ( + T1 303 )  ( + T6 222 ) ) ( <= ( + T6 227 )( + T1 299 ) ) )
(or ( <= ( + T1 401 )  ( + T6 227 ) ) ( <= ( + T6 264 )( + T1 303 ) ) )
(or ( <= ( + T1 440 )  ( + T6 264 ) ) ( <= ( + T6 337 )( + T1 401 ) ) )
(or ( <= ( + T1 448 )  ( + T6 337 ) ) ( <= ( + T6 385 )( + T1 440 ) ) )
(or ( <= ( + T1 87 ) T7 ) ( <= ( + T7 99 ) T1 ) )
(or ( <= ( + T1 162 )  ( + T7 99 ) ) ( <= ( + T7 125 )( + T1 87 ) ) )
(or ( <= ( + T1 197 )  ( + T7 125 ) ) ( <= ( + T7 154 )( + T1 162 ) ) )
(or ( <= ( + T1 285 )  ( + T7 154 ) ) ( <= ( + T7 241 )( + T1 197 ) ) )
(or ( <= ( + T1 293 )  ( + T7 241 ) ) ( <= ( + T7 254 )( + T1 285 ) ) )
(or ( <= ( + T1 299 )  ( + T7 254 ) ) ( <= ( + T7 351 )( + T1 293 ) ) )
(or ( <= ( + T1 303 )  ( + T7 351 ) ) ( <= ( + T7 386 )( + T1 299 ) ) )
(or ( <= ( + T1 401 )  ( + T7 386 ) ) ( <= ( + T7 443 )( + T1 303 ) ) )
(or ( <= ( + T1 440 )  ( + T7 443 ) ) ( <= ( + T7 516 )( + T1 401 ) ) )
(or ( <= ( + T1 448 )  ( + T7 516 ) ) ( <= ( + T7 543 )( + T1 440 ) ) )
(or ( <= ( + T1 87 ) T8 ) ( <= ( + T8 92 ) T1 ) )
(or ( <= ( + T1 162 )  ( + T8 92 ) ) ( <= ( + T8 148 )( + T1 87 ) ) )
(or ( <= ( + T1 197 )  ( + T8 148 ) ) ( <= ( + T8 156 )( + T1 162 ) ) )
(or ( <= ( + T1 285 )  ( + T8 156 ) ) ( <= ( + T8 194 )( + T1 197 ) ) )
(or ( <= ( + T1 293 )  ( + T8 194 ) ) ( <= ( + T8 212 )( + T1 285 ) ) )
(or ( <= ( + T1 299 )  ( + T8 212 ) ) ( <= ( + T8 304 )( + T1 293 ) ) )
(or ( <= ( + T1 303 )  ( + T8 304 ) ) ( <= ( + T8 353 )( + T1 299 ) ) )
(or ( <= ( + T1 401 )  ( + T8 353 ) ) ( <= ( + T8 446 )( + T1 303 ) ) )
(or ( <= ( + T1 440 )  ( + T8 446 ) ) ( <= ( + T8 489 )( + T1 401 ) ) )
(or ( <= ( + T1 448 )  ( + T8 489 ) ) ( <= ( + T8 583 )( + T1 440 ) ) )
(or ( <= ( + T2 85 ) T3 ) ( <= ( + T3 32 ) T2 ) )
(or ( <= ( + T2 98 )  ( + T3 32 ) ) ( <= ( + T3 107 )( + T2 85 ) ) )
(or ( <= ( + T2 126 )  ( + T3 107 ) ) ( <= ( + T3 159 )( + T2 98 ) ) )
(or ( <= ( + T2 130 )  ( + T3 159 ) ) ( <= ( + T3 238 )( + T2 126 ) ) )
(or ( <= ( + T2 143 )  ( + T3 238 ) ) ( <= ( + T3 286 )( + T2 130 ) ) )
(or ( <= ( + T2 204 )  ( + T3 286 ) ) ( <= ( + T3 366 )( + T2 143 ) ) )
(or ( <= ( + T2 272 )  ( + T3 366 ) ) ( <= ( + T3 444 )( + T2 204 ) ) )
(or ( <= ( + T2 308 )  ( + T3 444 ) ) ( <= ( + T3 498 )( + T2 272 ) ) )
(or ( <= ( + T2 327 )  ( + T3 498 ) ) ( <= ( + T3 542 )( + T2 308 ) ) )
(or ( <= ( + T2 399 )  ( + T3 542 ) ) ( <= ( + T3 605 )( + T2 327 ) ) )
(or ( <= ( + T2 85 ) T4 ) ( <= ( + T4 1 ) T2 ) )
(or ( <= ( + T2 98 )  ( + T4 1 ) ) ( <= ( + T4 31 )( + T2 85 ) ) )
(or ( <= ( + T2 126 )  ( + T4 31 ) ) ( <= ( + T4 120 )( + T2 98 ) ) )
(or ( <= ( + T2 130 )  ( + T4 120 ) ) ( <= ( + T4 208 )( + T2 126 ) ) )
(or ( <= ( + T2 143 )  ( + T4 208 ) ) ( <= ( + T4 277 )( + T2 130 ) ) )
(or ( <= ( + T2 204 )  ( + T4 277 ) ) ( <= ( + T4 373 )( + T2 143 ) ) )
(or ( <= ( + T2 272 )  ( + T4 373 ) ) ( <= ( + T4 418 )( + T2 204 ) ) )
(or ( <= ( + T2 308 )  ( + T4 418 ) ) ( <= ( + T4 442 )( + T2 272 ) ) )
(or ( <= ( + T2 327 )  ( + T4 442 ) ) ( <= ( + T4 535 )( + T2 308 ) ) )
(or ( <= ( + T2 399 )  ( + T4 535 ) ) ( <= ( + T4 618 )( + T2 327 ) ) )
(or ( <= ( + T2 85 ) T5 ) ( <= ( + T5 84 ) T2 ) )
(or ( <= ( + T2 98 )  ( + T5 84 ) ) ( <= ( + T5 113 )( + T2 85 ) ) )
(or ( <= ( + T2 126 )  ( + T5 113 ) ) ( <= ( + T5 160 )( + T2 98 ) ) )
(or ( <= ( + T2 130 )  ( + T5 160 ) ) ( <= ( + T5 223 )( + T2 126 ) ) )
(or ( <= ( + T2 143 )  ( + T5 223 ) ) ( <= ( + T5 308 )( + T2 130 ) ) )
(or ( <= ( + T2 204 )  ( + T5 308 ) ) ( <= ( + T5 367 )( + T2 143 ) ) )
(or ( <= ( + T2 272 )  ( + T5 367 ) ) ( <= ( + T5 443 )( + T2 204 ) ) )
(or ( <= ( + T2 308 )  ( + T5 443 ) ) ( <= ( + T5 495 )( + T2 272 ) ) )
(or ( <= ( + T2 327 )  ( + T5 495 ) ) ( <= ( + T5 541 )( + T2 308 ) ) )
(or ( <= ( + T2 399 )  ( + T5 541 ) ) ( <= ( + T5 635 )( + T2 327 ) ) )
(or ( <= ( + T2 85 ) T6 ) ( <= ( + T6 23 ) T2 ) )
(or ( <= ( + T2 98 )  ( + T6 23 ) ) ( <= ( + T6 100 )( + T2 85 ) ) )
(or ( <= ( + T2 126 )  ( + T6 100 ) ) ( <= ( + T6 121 )( + T2 98 ) ) )
(or ( <= ( + T2 130 )  ( + T6 121 ) ) ( <= ( + T6 147 )( + T2 126 ) ) )
(or ( <= ( + T2 143 )  ( + T6 147 ) ) ( <= ( + T6 154 )( + T2 130 ) ) )
(or ( <= ( + T2 204 )  ( + T6 154 ) ) ( <= ( + T6 222 )( + T2 143 ) ) )
(or ( <= ( + T2 272 )  ( + T6 222 ) ) ( <= ( + T6 227 )( + T2 204 ) ) )
(or ( <= ( + T2 308 )  ( + T6 227 ) ) ( <= ( + T6 264 )( + T2 272 ) ) )
(or ( <= ( + T2 327 )  ( + T6 264 ) ) ( <= ( + T6 337 )( + T2 308 ) ) )
(or ( <= ( + T2 399 )  ( + T6 337 ) ) ( <= ( + T6 385 )( + T2 327 ) ) )
(or ( <= ( + T2 85 ) T7 ) ( <= ( + T7 99 ) T2 ) )
(or ( <= ( + T2 98 )  ( + T7 99 ) ) ( <= ( + T7 125 )( + T2 85 ) ) )
(or ( <= ( + T2 126 )  ( + T7 125 ) ) ( <= ( + T7 154 )( + T2 98 ) ) )
(or ( <= ( + T2 130 )  ( + T7 154 ) ) ( <= ( + T7 241 )( + T2 126 ) ) )
(or ( <= ( + T2 143 )  ( + T7 241 ) ) ( <= ( + T7 254 )( + T2 130 ) ) )
(or ( <= ( + T2 204 )  ( + T7 254 ) ) ( <= ( + T7 351 )( + T2 143 ) ) )
(or ( <= ( + T2 272 )  ( + T7 351 ) ) ( <= ( + T7 386 )( + T2 204 ) ) )
(or ( <= ( + T2 308 )  ( + T7 386 ) ) ( <= ( + T7 443 )( + T2 272 ) ) )
(or ( <= ( + T2 327 )  ( + T7 443 ) ) ( <= ( + T7 516 )( + T2 308 ) ) )
(or ( <= ( + T2 399 )  ( + T7 516 ) ) ( <= ( + T7 543 )( + T2 327 ) ) )
(or ( <= ( + T2 85 ) T8 ) ( <= ( + T8 92 ) T2 ) )
(or ( <= ( + T2 98 )  ( + T8 92 ) ) ( <= ( + T8 148 )( + T2 85 ) ) )
(or ( <= ( + T2 126 )  ( + T8 148 ) ) ( <= ( + T8 156 )( + T2 98 ) ) )
(or ( <= ( + T2 130 )  ( + T8 156 ) ) ( <= ( + T8 194 )( + T2 126 ) ) )
(or ( <= ( + T2 143 )  ( + T8 194 ) ) ( <= ( + T8 212 )( + T2 130 ) ) )
(or ( <= ( + T2 204 )  ( + T8 212 ) ) ( <= ( + T8 304 )( + T2 143 ) ) )
(or ( <= ( + T2 272 )  ( + T8 304 ) ) ( <= ( + T8 353 )( + T2 204 ) ) )
(or ( <= ( + T2 308 )  ( + T8 353 ) ) ( <= ( + T8 446 )( + T2 272 ) ) )
(or ( <= ( + T2 327 )  ( + T8 446 ) ) ( <= ( + T8 489 )( + T2 308 ) ) )
(or ( <= ( + T2 399 )  ( + T8 489 ) ) ( <= ( + T8 583 )( + T2 327 ) ) )
(or ( <= ( + T3 32 ) T4 ) ( <= ( + T4 1 ) T3 ) )
(or ( <= ( + T3 107 )  ( + T4 1 ) ) ( <= ( + T4 31 )( + T3 32 ) ) )
(or ( <= ( + T3 159 )  ( + T4 31 ) ) ( <= ( + T4 120 )( + T3 107 ) ) )
(or ( <= ( + T3 238 )  ( + T4 120 ) ) ( <= ( + T4 208 )( + T3 159 ) ) )
(or ( <= ( + T3 286 )  ( + T4 208 ) ) ( <= ( + T4 277 )( + T3 238 ) ) )
(or ( <= ( + T3 366 )  ( + T4 277 ) ) ( <= ( + T4 373 )( + T3 286 ) ) )
(or ( <= ( + T3 444 )  ( + T4 373 ) ) ( <= ( + T4 418 )( + T3 366 ) ) )
(or ( <= ( + T3 498 )  ( + T4 418 ) ) ( <= ( + T4 442 )( + T3 444 ) ) )
(or ( <= ( + T3 542 )  ( + T4 442 ) ) ( <= ( + T4 535 )( + T3 498 ) ) )
(or ( <= ( + T3 605 )  ( + T4 535 ) ) ( <= ( + T4 618 )( + T3 542 ) ) )
(or ( <= ( + T3 32 ) T5 ) ( <= ( + T5 84 ) T3 ) )
(or ( <= ( + T3 107 )  ( + T5 84 ) ) ( <= ( + T5 113 )( + T3 32 ) ) )
(or ( <= ( + T3 159 )  ( + T5 113 ) ) ( <= ( + T5 160 )( + T3 107 ) ) )
(or ( <= ( + T3 238 )  ( + T5 160 ) ) ( <= ( + T5 223 )( + T3 159 ) ) )
(or ( <= ( + T3 286 )  ( + T5 223 ) ) ( <= ( + T5 308 )( + T3 238 ) ) )
(or ( <= ( + T3 366 )  ( + T5 308 ) ) ( <= ( + T5 367 )( + T3 286 ) ) )
(or ( <= ( + T3 444 )  ( + T5 367 ) ) ( <= ( + T5 443 )( + T3 366 ) ) )
(or ( <= ( + T3 498 )  ( + T5 443 ) ) ( <= ( + T5 495 )( + T3 444 ) ) )
(or ( <= ( + T3 542 )  ( + T5 495 ) ) ( <= ( + T5 541 )( + T3 498 ) ) )
(or ( <= ( + T3 605 )  ( + T5 541 ) ) ( <= ( + T5 635 )( + T3 542 ) ) )
(or ( <= ( + T3 32 ) T6 ) ( <= ( + T6 23 ) T3 ) )
(or ( <= ( + T3 107 )  ( + T6 23 ) ) ( <= ( + T6 100 )( + T3 32 ) ) )
(or ( <= ( + T3 159 )  ( + T6 100 ) ) ( <= ( + T6 121 )( + T3 107 ) ) )
(or ( <= ( + T3 238 )  ( + T6 121 ) ) ( <= ( + T6 147 )( + T3 159 ) ) )
(or ( <= ( + T3 286 )  ( + T6 147 ) ) ( <= ( + T6 154 )( + T3 238 ) ) )
(or ( <= ( + T3 366 )  ( + T6 154 ) ) ( <= ( + T6 222 )( + T3 286 ) ) )
(or ( <= ( + T3 444 )  ( + T6 222 ) ) ( <= ( + T6 227 )( + T3 366 ) ) )
(or ( <= ( + T3 498 )  ( + T6 227 ) ) ( <= ( + T6 264 )( + T3 444 ) ) )
(or ( <= ( + T3 542 )  ( + T6 264 ) ) ( <= ( + T6 337 )( + T3 498 ) ) )
(or ( <= ( + T3 605 )  ( + T6 337 ) ) ( <= ( + T6 385 )( + T3 542 ) ) )
(or ( <= ( + T3 32 ) T7 ) ( <= ( + T7 99 ) T3 ) )
(or ( <= ( + T3 107 )  ( + T7 99 ) ) ( <= ( + T7 125 )( + T3 32 ) ) )
(or ( <= ( + T3 159 )  ( + T7 125 ) ) ( <= ( + T7 154 )( + T3 107 ) ) )
(or ( <= ( + T3 238 )  ( + T7 154 ) ) ( <= ( + T7 241 )( + T3 159 ) ) )
(or ( <= ( + T3 286 )  ( + T7 241 ) ) ( <= ( + T7 254 )( + T3 238 ) ) )
(or ( <= ( + T3 366 )  ( + T7 254 ) ) ( <= ( + T7 351 )( + T3 286 ) ) )
(or ( <= ( + T3 444 )  ( + T7 351 ) ) ( <= ( + T7 386 )( + T3 366 ) ) )
(or ( <= ( + T3 498 )  ( + T7 386 ) ) ( <= ( + T7 443 )( + T3 444 ) ) )
(or ( <= ( + T3 542 )  ( + T7 443 ) ) ( <= ( + T7 516 )( + T3 498 ) ) )
(or ( <= ( + T3 605 )  ( + T7 516 ) ) ( <= ( + T7 543 )( + T3 542 ) ) )
(or ( <= ( + T3 32 ) T8 ) ( <= ( + T8 92 ) T3 ) )
(or ( <= ( + T3 107 )  ( + T8 92 ) ) ( <= ( + T8 148 )( + T3 32 ) ) )
(or ( <= ( + T3 159 )  ( + T8 148 ) ) ( <= ( + T8 156 )( + T3 107 ) ) )
(or ( <= ( + T3 238 )  ( + T8 156 ) ) ( <= ( + T8 194 )( + T3 159 ) ) )
(or ( <= ( + T3 286 )  ( + T8 194 ) ) ( <= ( + T8 212 )( + T3 238 ) ) )
(or ( <= ( + T3 366 )  ( + T8 212 ) ) ( <= ( + T8 304 )( + T3 286 ) ) )
(or ( <= ( + T3 444 )  ( + T8 304 ) ) ( <= ( + T8 353 )( + T3 366 ) ) )
(or ( <= ( + T3 498 )  ( + T8 353 ) ) ( <= ( + T8 446 )( + T3 444 ) ) )
(or ( <= ( + T3 542 )  ( + T8 446 ) ) ( <= ( + T8 489 )( + T3 498 ) ) )
(or ( <= ( + T3 605 )  ( + T8 489 ) ) ( <= ( + T8 583 )( + T3 542 ) ) )
(or ( <= ( + T4 1 ) T5 ) ( <= ( + T5 84 ) T4 ) )
(or ( <= ( + T4 31 )  ( + T5 84 ) ) ( <= ( + T5 113 )( + T4 1 ) ) )
(or ( <= ( + T4 120 )  ( + T5 113 ) ) ( <= ( + T5 160 )( + T4 31 ) ) )
(or ( <= ( + T4 208 )  ( + T5 160 ) ) ( <= ( + T5 223 )( + T4 120 ) ) )
(or ( <= ( + T4 277 )  ( + T5 223 ) ) ( <= ( + T5 308 )( + T4 208 ) ) )
(or ( <= ( + T4 373 )  ( + T5 308 ) ) ( <= ( + T5 367 )( + T4 277 ) ) )
(or ( <= ( + T4 418 )  ( + T5 367 ) ) ( <= ( + T5 443 )( + T4 373 ) ) )
(or ( <= ( + T4 442 )  ( + T5 443 ) ) ( <= ( + T5 495 )( + T4 418 ) ) )
(or ( <= ( + T4 535 )  ( + T5 495 ) ) ( <= ( + T5 541 )( + T4 442 ) ) )
(or ( <= ( + T4 618 )  ( + T5 541 ) ) ( <= ( + T5 635 )( + T4 535 ) ) )
(or ( <= ( + T4 1 ) T6 ) ( <= ( + T6 23 ) T4 ) )
(or ( <= ( + T4 31 )  ( + T6 23 ) ) ( <= ( + T6 100 )( + T4 1 ) ) )
(or ( <= ( + T4 120 )  ( + T6 100 ) ) ( <= ( + T6 121 )( + T4 31 ) ) )
(or ( <= ( + T4 208 )  ( + T6 121 ) ) ( <= ( + T6 147 )( + T4 120 ) ) )
(or ( <= ( + T4 277 )  ( + T6 147 ) ) ( <= ( + T6 154 )( + T4 208 ) ) )
(or ( <= ( + T4 373 )  ( + T6 154 ) ) ( <= ( + T6 222 )( + T4 277 ) ) )
(or ( <= ( + T4 418 )  ( + T6 222 ) ) ( <= ( + T6 227 )( + T4 373 ) ) )
(or ( <= ( + T4 442 )  ( + T6 227 ) ) ( <= ( + T6 264 )( + T4 418 ) ) )
(or ( <= ( + T4 535 )  ( + T6 264 ) ) ( <= ( + T6 337 )( + T4 442 ) ) )
(or ( <= ( + T4 618 )  ( + T6 337 ) ) ( <= ( + T6 385 )( + T4 535 ) ) )
(or ( <= ( + T4 1 ) T7 ) ( <= ( + T7 99 ) T4 ) )
(or ( <= ( + T4 31 )  ( + T7 99 ) ) ( <= ( + T7 125 )( + T4 1 ) ) )
(or ( <= ( + T4 120 )  ( + T7 125 ) ) ( <= ( + T7 154 )( + T4 31 ) ) )
(or ( <= ( + T4 208 )  ( + T7 154 ) ) ( <= ( + T7 241 )( + T4 120 ) ) )
(or ( <= ( + T4 277 )  ( + T7 241 ) ) ( <= ( + T7 254 )( + T4 208 ) ) )
(or ( <= ( + T4 373 )  ( + T7 254 ) ) ( <= ( + T7 351 )( + T4 277 ) ) )
(or ( <= ( + T4 418 )  ( + T7 351 ) ) ( <= ( + T7 386 )( + T4 373 ) ) )
(or ( <= ( + T4 442 )  ( + T7 386 ) ) ( <= ( + T7 443 )( + T4 418 ) ) )
(or ( <= ( + T4 535 )  ( + T7 443 ) ) ( <= ( + T7 516 )( + T4 442 ) ) )
(or ( <= ( + T4 618 )  ( + T7 516 ) ) ( <= ( + T7 543 )( + T4 535 ) ) )
(or ( <= ( + T4 1 ) T8 ) ( <= ( + T8 92 ) T4 ) )
(or ( <= ( + T4 31 )  ( + T8 92 ) ) ( <= ( + T8 148 )( + T4 1 ) ) )
(or ( <= ( + T4 120 )  ( + T8 148 ) ) ( <= ( + T8 156 )( + T4 31 ) ) )
(or ( <= ( + T4 208 )  ( + T8 156 ) ) ( <= ( + T8 194 )( + T4 120 ) ) )
(or ( <= ( + T4 277 )  ( + T8 194 ) ) ( <= ( + T8 212 )( + T4 208 ) ) )
(or ( <= ( + T4 373 )  ( + T8 212 ) ) ( <= ( + T8 304 )( + T4 277 ) ) )
(or ( <= ( + T4 418 )  ( + T8 304 ) ) ( <= ( + T8 353 )( + T4 373 ) ) )
(or ( <= ( + T4 442 )  ( + T8 353 ) ) ( <= ( + T8 446 )( + T4 418 ) ) )
(or ( <= ( + T4 535 )  ( + T8 446 ) ) ( <= ( + T8 489 )( + T4 442 ) ) )
(or ( <= ( + T4 618 )  ( + T8 489 ) ) ( <= ( + T8 583 )( + T4 535 ) ) )
(or ( <= ( + T5 84 ) T6 ) ( <= ( + T6 23 ) T5 ) )
(or ( <= ( + T5 113 )  ( + T6 23 ) ) ( <= ( + T6 100 )( + T5 84 ) ) )
(or ( <= ( + T5 160 )  ( + T6 100 ) ) ( <= ( + T6 121 )( + T5 113 ) ) )
(or ( <= ( + T5 223 )  ( + T6 121 ) ) ( <= ( + T6 147 )( + T5 160 ) ) )
(or ( <= ( + T5 308 )  ( + T6 147 ) ) ( <= ( + T6 154 )( + T5 223 ) ) )
(or ( <= ( + T5 367 )  ( + T6 154 ) ) ( <= ( + T6 222 )( + T5 308 ) ) )
(or ( <= ( + T5 443 )  ( + T6 222 ) ) ( <= ( + T6 227 )( + T5 367 ) ) )
(or ( <= ( + T5 495 )  ( + T6 227 ) ) ( <= ( + T6 264 )( + T5 443 ) ) )
(or ( <= ( + T5 541 )  ( + T6 264 ) ) ( <= ( + T6 337 )( + T5 495 ) ) )
(or ( <= ( + T5 635 )  ( + T6 337 ) ) ( <= ( + T6 385 )( + T5 541 ) ) )
(or ( <= ( + T5 84 ) T7 ) ( <= ( + T7 99 ) T5 ) )
(or ( <= ( + T5 113 )  ( + T7 99 ) ) ( <= ( + T7 125 )( + T5 84 ) ) )
(or ( <= ( + T5 160 )  ( + T7 125 ) ) ( <= ( + T7 154 )( + T5 113 ) ) )
(or ( <= ( + T5 223 )  ( + T7 154 ) ) ( <= ( + T7 241 )( + T5 160 ) ) )
(or ( <= ( + T5 308 )  ( + T7 241 ) ) ( <= ( + T7 254 )( + T5 223 ) ) )
(or ( <= ( + T5 367 )  ( + T7 254 ) ) ( <= ( + T7 351 )( + T5 308 ) ) )
(or ( <= ( + T5 443 )  ( + T7 351 ) ) ( <= ( + T7 386 )( + T5 367 ) ) )
(or ( <= ( + T5 495 )  ( + T7 386 ) ) ( <= ( + T7 443 )( + T5 443 ) ) )
(or ( <= ( + T5 541 )  ( + T7 443 ) ) ( <= ( + T7 516 )( + T5 495 ) ) )
(or ( <= ( + T5 635 )  ( + T7 516 ) ) ( <= ( + T7 543 )( + T5 541 ) ) )
(or ( <= ( + T5 84 ) T8 ) ( <= ( + T8 92 ) T5 ) )
(or ( <= ( + T5 113 )  ( + T8 92 ) ) ( <= ( + T8 148 )( + T5 84 ) ) )
(or ( <= ( + T5 160 )  ( + T8 148 ) ) ( <= ( + T8 156 )( + T5 113 ) ) )
(or ( <= ( + T5 223 )  ( + T8 156 ) ) ( <= ( + T8 194 )( + T5 160 ) ) )
(or ( <= ( + T5 308 )  ( + T8 194 ) ) ( <= ( + T8 212 )( + T5 223 ) ) )
(or ( <= ( + T5 367 )  ( + T8 212 ) ) ( <= ( + T8 304 )( + T5 308 ) ) )
(or ( <= ( + T5 443 )  ( + T8 304 ) ) ( <= ( + T8 353 )( + T5 367 ) ) )
(or ( <= ( + T5 495 )  ( + T8 353 ) ) ( <= ( + T8 446 )( + T5 443 ) ) )
(or ( <= ( + T5 541 )  ( + T8 446 ) ) ( <= ( + T8 489 )( + T5 495 ) ) )
(or ( <= ( + T5 635 )  ( + T8 489 ) ) ( <= ( + T8 583 )( + T5 541 ) ) )
(or ( <= ( + T6 23 ) T7 ) ( <= ( + T7 99 ) T6 ) )
(or ( <= ( + T6 100 )  ( + T7 99 ) ) ( <= ( + T7 125 )( + T6 23 ) ) )
(or ( <= ( + T6 121 )  ( + T7 125 ) ) ( <= ( + T7 154 )( + T6 100 ) ) )
(or ( <= ( + T6 147 )  ( + T7 154 ) ) ( <= ( + T7 241 )( + T6 121 ) ) )
(or ( <= ( + T6 154 )  ( + T7 241 ) ) ( <= ( + T7 254 )( + T6 147 ) ) )
(or ( <= ( + T6 222 )  ( + T7 254 ) ) ( <= ( + T7 351 )( + T6 154 ) ) )
(or ( <= ( + T6 227 )  ( + T7 351 ) ) ( <= ( + T7 386 )( + T6 222 ) ) )
(or ( <= ( + T6 264 )  ( + T7 386 ) ) ( <= ( + T7 443 )( + T6 227 ) ) )
(or ( <= ( + T6 337 )  ( + T7 443 ) ) ( <= ( + T7 516 )( + T6 264 ) ) )
(or ( <= ( + T6 385 )  ( + T7 516 ) ) ( <= ( + T7 543 )( + T6 337 ) ) )
(or ( <= ( + T6 23 ) T8 ) ( <= ( + T8 92 ) T6 ) )
(or ( <= ( + T6 100 )  ( + T8 92 ) ) ( <= ( + T8 148 )( + T6 23 ) ) )
(or ( <= ( + T6 121 )  ( + T8 148 ) ) ( <= ( + T8 156 )( + T6 100 ) ) )
(or ( <= ( + T6 147 )  ( + T8 156 ) ) ( <= ( + T8 194 )( + T6 121 ) ) )
(or ( <= ( + T6 154 )  ( + T8 194 ) ) ( <= ( + T8 212 )( + T6 147 ) ) )
(or ( <= ( + T6 222 )  ( + T8 212 ) ) ( <= ( + T8 304 )( + T6 154 ) ) )
(or ( <= ( + T6 227 )  ( + T8 304 ) ) ( <= ( + T8 353 )( + T6 222 ) ) )
(or ( <= ( + T6 264 )  ( + T8 353 ) ) ( <= ( + T8 446 )( + T6 227 ) ) )
(or ( <= ( + T6 337 )  ( + T8 446 ) ) ( <= ( + T8 489 )( + T6 264 ) ) )
(or ( <= ( + T6 385 )  ( + T8 489 ) ) ( <= ( + T8 583 )( + T6 337 ) ) )
(or ( <= ( + T7 99 ) T8 ) ( <= ( + T8 92 ) T7 ) )
(or ( <= ( + T7 125 )  ( + T8 92 ) ) ( <= ( + T8 148 )( + T7 99 ) ) )
(or ( <= ( + T7 154 )  ( + T8 148 ) ) ( <= ( + T8 156 )( + T7 125 ) ) )
(or ( <= ( + T7 241 )  ( + T8 156 ) ) ( <= ( + T8 194 )( + T7 154 ) ) )
(or ( <= ( + T7 254 )  ( + T8 194 ) ) ( <= ( + T8 212 )( + T7 241 ) ) )
(or ( <= ( + T7 351 )  ( + T8 212 ) ) ( <= ( + T8 304 )( + T7 254 ) ) )
(or ( <= ( + T7 386 )  ( + T8 304 ) ) ( <= ( + T8 353 )( + T7 351 ) ) )
(or ( <= ( + T7 443 )  ( + T8 353 ) ) ( <= ( + T8 446 )( + T7 386 ) ) )
(or ( <= ( + T7 516 )  ( + T8 446 ) ) ( <= ( + T8 489 )( + T7 443 ) ) )
(or ( <= ( + T7 543 )  ( + T8 489 ) ) ( <= ( + T8 583 )( + T7 516 ) ) )
( <= ( + T1 448 ) Z)
( <= ( + T2 399 ) Z)
( <= ( + T3 605 ) Z)
( <= ( + T4 618 ) Z)
( <= ( + T5 635 ) Z)
( <= ( + T6 385 ) Z)
( <= ( + T7 543 ) Z)
( <= ( + T8 583 ) Z)
( >= T1 0 )
( >= T2 0 )
( >= T3 0 )
( >= T4 0 )
( >= T5 0 )
( >= T6 0 )
( >= T7 0 )
( >= T8 0 )
) )
(minimize Z)
(check-sat)